169322
[0, 4, 3, 2, 5, 1, 6, 103, 104, 105, 106, 107, 108, 113, 112, 111, 110, 109, 114, 115, 116, 117, 118, 121, 120, 119, 122, 123, 124, 125, 126, 127, 128, 129, 130, 131, 132, 133, 134, 135, 136, 137, 138, 139, 140, 141, 143, 142, 144, 145, 146, 147, 148, 149, 150, 151, 152, 153, 154, 155, 156, 157, 158, 159, 160, 161, 165, 164, 163, 162, 166, 167, 168, 169, 170, 171, 172, 173, 175, 174, 176, 177, 178, 179, 180, 181, 182, 183, 184, 185, 187, 186, 188, 189, 191, 190, 192, 194, 193, 195, 196, 197, 198, 199, 200, 201, 202, 203, 204, 205, 209, 208, 207, 206, 210, 211, 212, 213, 214, 215, 216, 217, 218, 220, 219, 221, 222, 225, 224, 223, 226, 227, 228, 229, 230, 231, 232, 233, 234, 235, 237, 236, 238, 239, 240, 245, 244, 243, 242, 241, 249, 246, 247, 248, 253, 252, 251, 250, 254, 255, 256, 257, 258, 259, 260, 261, 262, 263, 264, 265, 266, 270, 269, 267, 268, 271, 272, 273, 274, 275, 276, 277, 279, 278, 280, 281, 283, 282, 284, 285, 289, 290, 291, 292, 293, 294, 295, 296, 297, 298, 299, 300, 308, 302, 306, 304, 305, 303, 307, 301, 309, 310, 311, 312, 313, 314, 315, 316, 317, 318, 319, 320, 321, 322, 347, 348, 350, 349, 351, 352, 353, 356, 355, 354, 357, 358, 360, 359, 345, 346, 323, 324, 325, 326, 327, 328, 329, 330, 331, 332, 288, 287, 286, 333, 334, 335, 336, 337, 338, 339, 340, 341, 342, 343, 344, 361, 362, 363, 364, 365, 366, 371, 370, 369, 368, 367, 375, 374, 373, 372, 379, 378, 376, 377, 380, 381, 382, 383, 384, 385, 386, 387, 388, 389, 390, 391, 392, 393, 394, 396, 395, 397, 398, 399, 400, 401, 402, 404, 403, 405, 406, 407, 408, 410, 409, 411, 412, 413, 414, 415, 416, 417, 418, 419, 420, 421, 422, 423, 424, 425, 426, 427, 428, 429, 430, 431, 433, 432, 434, 435, 436, 437, 438, 439, 440, 441, 443, 442, 444, 445, 446, 447, 452, 451, 450, 449, 448, 453, 454, 456, 455, 457, 458, 459, 467, 466, 465, 464, 463, 462, 461, 460, 468, 469, 470, 471, 472, 473, 474, 475, 476, 477, 478, 479, 480, 481, 482, 483, 486, 487, 488, 489, 490, 491, 492, 493, 485, 484, 498, 497, 496, 495, 494, 499, 500, 501, 502, 503, 504, 505, 506, 507, 508, 509, 512, 511, 510, 513, 514, 515, 516, 517, 518, 519, 520, 521, 522, 523, 524, 525, 526, 527, 528, 529, 530, 531, 532, 533, 534, 535, 536, 537, 538, 539, 540, 541, 542, 543, 544, 545, 546, 547, 548, 549, 550, 551, 552, 553, 554, 555, 556, 557, 558, 559, 560, 561, 562, 563, 564, 565, 566, 567, 568, 569, 570, 571, 573, 572, 574, 575, 576, 577, 579, 578, 580, 581, 582, 583, 584, 585, 586, 587, 588, 589, 590, 593, 592, 614, 613, 612, 611, 610, 609, 608, 607, 606, 605, 604, 603, 602, 601, 598, 599, 597, 600, 596, 595, 594, 591, 615, 616, 617, 618, 619, 620, 621, 622, 623, 624, 625, 627, 626, 628, 629, 630, 633, 632, 631, 634, 635, 636, 637, 638, 639, 640, 641, 642, 645, 649, 650, 648, 647, 646, 652, 653, 654, 655, 656, 657, 662, 659, 651, 644, 643, 660, 661, 658, 663, 664, 665, 666, 668, 667, 669, 670, 671, 672, 673, 674, 675, 676, 677, 678, 679, 680, 682, 681, 683, 684, 685, 686, 687, 688, 689, 690, 691, 692, 693, 694, 695, 696, 697, 698, 699, 700, 701, 702, 703, 704, 705, 706, 707, 708, 709, 710, 711, 712, 713, 714, 715, 716, 717, 718, 719, 720, 721, 727, 722, 723, 724, 725, 726, 730, 729, 728, 731, 732, 733, 735, 734, 736, 737, 738, 739, 740, 741, 744, 745, 747, 746, 748, 749, 750, 751, 752, 757, 756, 755, 754, 753, 758, 760, 759, 762, 761, 763, 764, 766, 765, 767, 769, 768, 770, 772, 771, 773, 775, 774, 776, 777, 778, 779, 780, 781, 785, 784, 786, 782, 783, 787, 788, 789, 790, 791, 792, 793, 794, 795, 796, 798, 797, 799, 800, 801, 802, 803, 804, 805, 806, 807, 808, 809, 810, 811, 812, 813, 814, 815, 816, 817, 818, 819, 821, 743, 742, 824, 825, 823, 822, 820, 826, 827, 828, 829, 831, 832, 830, 833, 834, 835, 836, 837, 838, 839, 840, 841, 842, 843, 845, 844, 846, 847, 848, 849, 850, 851, 852, 853, 854, 855, 856, 857, 859, 858, 860, 865, 864, 863, 862, 861, 866, 867, 868, 869, 870, 871, 872, 873, 874, 875, 876, 879, 877, 878, 880, 885, 884, 883, 882, 881, 886, 887, 888, 889, 890, 891, 895, 896, 897, 898, 899, 900, 901, 902, 903, 904, 905, 906, 908, 907, 909, 912, 911, 910, 913, 914, 915, 916, 917, 918, 919, 920, 921, 893, 894, 892, 924, 923, 922, 925, 926, 927, 928, 929, 930, 931, 932, 933, 934, 935, 936, 937, 938, 939, 940, 941, 942, 943, 944, 945, 946, 947, 948, 949, 950, 951, 952, 953, 954, 955, 956, 957, 958, 959, 960, 961, 964, 962, 963, 965, 966, 967, 969, 968, 970, 971, 972, 973, 974, 975, 1072, 1073, 1074, 1075, 1076, 1077, 1078, 1079, 1080, 1081, 1082, 1083, 1084, 1085, 1086, 1087, 1088, 1089, 1090, 1091, 1092, 1093, 1094, 1095, 1096, 1097, 1098, 1099, 1100, 1101, 1102, 1103, 1108, 1107, 1106, 1105, 1104, 1109, 1111, 1110, 1112, 1113, 1114, 1116, 1115, 1120, 1117, 1119, 1121, 1118, 1124, 1123, 1122, 1125, 1126, 1127, 1129, 1128, 1130, 1132, 1131, 1133, 1134, 1135, 1136, 1137, 1138, 1139, 1140, 1141, 1142, 1143, 1144, 1145, 1146, 1149, 1148, 1147, 1035, 1036, 1038, 1037, 1039, 1040, 1041, 1042, 1043, 1044, 1045, 1046, 1047, 1048, 1049, 1050, 1051, 1052, 1053, 1054, 1055, 1056, 1057, 1058, 1059, 1060, 1061, 1062, 1063, 1064, 1065, 1066, 1068, 1067, 1069, 1070, 1071, 976, 977, 978, 979, 982, 981, 980, 983, 984, 985, 986, 987, 988, 989, 1017, 1016, 990, 991, 993, 992, 994, 995, 996, 997, 998, 999, 1000, 1001, 1002, 1004, 1003, 1006, 1005, 1007, 1008, 1009, 1010, 1011, 1012, 1013, 1014, 1015, 1018, 1019, 1020, 1021, 1022, 1023, 1024, 1025, 1026, 1027, 1028, 1029, 1030, 1033, 1034, 1031, 1032, 1150, 1152, 1156, 1155, 1154, 1153, 1157, 1158, 1159, 1160, 1151, 1163, 1162, 1161, 1164, 1165, 1166, 1167, 1168, 1169, 1170, 1171, 1172, 1173, 1174, 1175, 1176, 1177, 1178, 1179, 1180, 1181, 1182, 1183, 1184, 1185, 1186, 1187, 1188, 1189, 1190, 1191, 1192, 1193, 1194, 1195, 1196, 1197, 1198, 1199, 1200, 1201, 1203, 1202, 1204, 1205, 1206, 1207, 1208, 1209, 1210, 1211, 1212, 1213, 1214, 1216, 1215, 1218, 1217, 1219, 1220, 1221, 1224, 1223, 1222, 1225, 1226, 1227, 1228, 1229, 1230, 1231, 1232, 1233, 1234, 1235, 1236, 1237, 1239, 1238, 1240, 1241, 1242, 1245, 1244, 1243, 1246, 1247, 1248, 1249, 1250, 1251, 1252, 1253, 1254, 1255, 1256, 1257, 1258, 1259, 1260, 1261, 1263, 1262, 1264, 1265, 1266, 1269, 1268, 1267, 1270, 1271, 1272, 1273, 1275, 1274, 1276, 1277, 1278, 1279, 1281, 1280, 1282, 1283, 1284, 1293, 1286, 41, 42, 43, 47, 48, 49, 46, 45, 44, 50, 51, 52, 53, 54, 55, 56, 57, 58, 60, 59, 61, 62, 63, 64, 65, 66, 67, 68, 71, 70, 69, 72, 73, 74, 75, 76, 77, 78, 79, 80, 81, 82, 83, 84, 85, 86, 87, 88, 95, 94, 93, 89, 90, 91, 92, 96, 97, 98, 99, 100, 101, 102, 7, 8, 9, 10, 11, 12, 13, 14, 15, 16, 17, 18, 19, 20, 21, 22, 23, 24, 25, 27, 26, 28, 29, 30, 31, 32, 33, 34, 35, 36, 38, 37, 39, 40, 1291, 1290, 1289, 1288, 1287, 1304, 1302, 1301, 1292, 1285, 1294, 1295, 1297, 1296, 1298, 1299, 1300, 1303, 1305, 1307, 1306, 1308, 1309, 1310, 1318, 1317, 1316, 1313, 1314, 1315, 1312, 1326, 1311, 1319, 1320, 1321, 1322, 1324, 1323, 1325, 1327, 1328, 1329, 1330, 1331, 1332, 1333, 1336, 1335, 1334, 1337, 1338, 1339, 1340, 1341, 1342, 1343, 1344, 1345, 1346, 1347, 1348, 1349, 1350, 1351, 1352, 1354, 1353, 1355, 1356, 1357, 1360, 1359, 1358, 1361, 1362, 1363, 1364, 1366, 1365, 1367, 1368, 1369, 1370, 1371, 1372, 1373, 1374, 1375, 1376, 1377, 1378, 1379, 1380, 1381, 1382, 1383, 1384, 1385, 1386, 1387, 1388, 1389, 1390, 1391, 1392, 1393, 1394, 1395, 1396, 1397, 1398, 1399, 1401, 1400, 1402, 1403, 1404, 1405, 1406, 1407, 1408, 1409, 1410, 1411, 1412, 1413, 1414, 1415, 1416, 1417, 1418, 1419, 1420, 1421, 1422, 1423, 1424, 1425, 1426, 1427, 1428, 1429, 1430, 1431]
